(set-info :source |printed by MathSAT|)
(declare-fun |sum::n__param__@2| () (_ BitVec 32))
(declare-fun |sum::m__param__@2| () (_ BitVec 32))
(declare-fun |sum::n@2| () (_ BitVec 32))
(declare-fun |sum::m@2| () (_ BitVec 32))
(declare-fun |sum::n__param__@3| () (_ BitVec 32))
(declare-fun |sum::m__param__@3| () (_ BitVec 32))
(declare-fun |sum::__retval__@2| () (_ BitVec 32))
(declare-fun |sum::n@3| () (_ BitVec 32))
(declare-fun |sum::m@3| () (_ BitVec 32))
(declare-fun |sum::n__param__@4| () (_ BitVec 32))
(declare-fun |sum::m__param__@4| () (_ BitVec 32))
(declare-fun |sum::n@4| () (_ BitVec 32))
(declare-fun |sum::m@4| () (_ BitVec 32))
(declare-fun |sum::n__param__@5| () (_ BitVec 32))
(declare-fun |sum::m__param__@5| () (_ BitVec 32))
(declare-fun |sum::n@5| () (_ BitVec 32))
(declare-fun |sum::m@5| () (_ BitVec 32))
(declare-fun |sum::n__param__@6| () (_ BitVec 32))
(declare-fun |sum::m__param__@6| () (_ BitVec 32))
(declare-fun |sum::n@6| () (_ BitVec 32))
(declare-fun |sum::m@6| () (_ BitVec 32))
(declare-fun |sum::n__param__@7| () (_ BitVec 32))
(declare-fun |sum::m__param__@7| () (_ BitVec 32))
(declare-fun |sum::n@7| () (_ BitVec 32))
(declare-fun |sum::m@7| () (_ BitVec 32))
(declare-fun |sum::n__param__@8| () (_ BitVec 32))
(declare-fun |sum::m__param__@8| () (_ BitVec 32))
(declare-fun |sum::n@8| () (_ BitVec 32))
(declare-fun |sum::m@8| () (_ BitVec 32))
(declare-fun |sum::n__param__@9| () (_ BitVec 32))
(declare-fun |sum::m__param__@9| () (_ BitVec 32))
(declare-fun |sum::n@9| () (_ BitVec 32))
(declare-fun |sum::m@9| () (_ BitVec 32))
(declare-fun |sum::n__param__@10| () (_ BitVec 32))
(declare-fun |sum::m__param__@10| () (_ BitVec 32))
(declare-fun |sum::n@10| () (_ BitVec 32))
(declare-fun |sum::m@10| () (_ BitVec 32))
(declare-fun |sum::n__param__@11| () (_ BitVec 32))
(declare-fun |sum::m__param__@11| () (_ BitVec 32))
(declare-fun |sum::n@11| () (_ BitVec 32))
(declare-fun |sum::m@11| () (_ BitVec 32))
(declare-fun |sum::n__param__@12| () (_ BitVec 32))
(declare-fun |sum::m__param__@12| () (_ BitVec 32))
(declare-fun |sum::n@12| () (_ BitVec 32))
(declare-fun |sum::m@12| () (_ BitVec 32))
(declare-fun |sum::iVar1@13| () (_ BitVec 32))
(declare-fun |sum::__retval__@3| () (_ BitVec 32))
(declare-fun |sum::__retval__@4| () (_ BitVec 32))
(declare-fun |sum::__retval__@5| () (_ BitVec 32))
(declare-fun |sum::__retval__@6| () (_ BitVec 32))
(declare-fun |sum::__retval__@7| () (_ BitVec 32))
(declare-fun |sum::__retval__@8| () (_ BitVec 32))
(declare-fun |sum::__retval__@9| () (_ BitVec 32))
(declare-fun |sum::__retval__@10| () (_ BitVec 32))
(declare-fun |sum::__retval__@11| () (_ BitVec 32))
(declare-fun |sum::__retval__@12| () (_ BitVec 32))
(declare-fun |sum::iVar1@15| () (_ BitVec 32))
(declare-fun |sum::iVar1@17| () (_ BitVec 32))
(declare-fun |sum::iVar1@19| () (_ BitVec 32))
(declare-fun |sum::iVar1@21| () (_ BitVec 32))
(declare-fun |sum::iVar1@23| () (_ BitVec 32))
(declare-fun |sum::iVar1@25| () (_ BitVec 32))
(declare-fun |sum::iVar1@27| () (_ BitVec 32))
(declare-fun |sum::iVar1@29| () (_ BitVec 32))
(declare-fun |sum::iVar1@31| () (_ BitVec 32))
(declare-fun |sum::iVar1@33| () (_ BitVec 32))
(declare-fun |main::iVar1@14| () (_ BitVec 32))
(assert (let ((.def_19 (= |sum::m__param__@2| |sum::m@2|)))(let ((.def_17 (= |sum::n__param__@2| |sum::n@2|)))(let ((.def_20 (and .def_17 .def_19)))(let ((.def_14 (= |sum::m__param__@2| (_ bv0 32))))(let ((.def_12 (= |sum::n__param__@2| (_ bv10 32))))(let ((.def_15 (and .def_12 .def_14)))(let ((.def_338 (and .def_15 .def_20)))(let ((.def_22 (bvslt |sum::n@2| (_ bv1 32))))(let ((.def_25 (not .def_22)))(let ((.def_339 (and .def_25 .def_338)))(let ((.def_34 (bvadd (_ bv1 32) |sum::m@2|)))(let ((.def_36 (= .def_34 |sum::m__param__@3|)))(let ((.def_30 (bvadd (_ bv4294967295 32) |sum::n@2|)))(let ((.def_32 (= .def_30 |sum::n__param__@3|)))(let ((.def_37 (and .def_32 .def_36)))(let ((.def_340 (and .def_37 .def_339)))(let ((.def_76 (= |sum::m__param__@3| |sum::m@3|)))(let ((.def_74 (= |sum::n__param__@3| |sum::n@3|)))(let ((.def_77 (and .def_74 .def_76)))(let ((.def_341 (and .def_77 .def_340)))(let ((.def_78 (bvslt |sum::n@3| (_ bv1 32))))(let ((.def_80 (not .def_78)))(let ((.def_342 (and .def_80 .def_341)))(let ((.def_88 (bvadd (_ bv1 32) |sum::m@3|)))(let ((.def_90 (= .def_88 |sum::m__param__@4|)))(let ((.def_84 (bvadd (_ bv4294967295 32) |sum::n@3|)))(let ((.def_86 (= .def_84 |sum::n__param__@4|)))(let ((.def_91 (and .def_86 .def_90)))(let ((.def_343 (and .def_91 .def_342)))(let ((.def_95 (= |sum::m__param__@4| |sum::m@4|)))(let ((.def_93 (= |sum::n__param__@4| |sum::n@4|)))(let ((.def_96 (and .def_93 .def_95)))(let ((.def_344 (and .def_96 .def_343)))(let ((.def_97 (bvslt |sum::n@4| (_ bv1 32))))(let ((.def_99 (not .def_97)))(let ((.def_345 (and .def_99 .def_344)))(let ((.def_107 (bvadd (_ bv1 32) |sum::m@4|)))(let ((.def_109 (= .def_107 |sum::m__param__@5|)))(let ((.def_103 (bvadd (_ bv4294967295 32) |sum::n@4|)))(let ((.def_105 (= .def_103 |sum::n__param__@5|)))(let ((.def_110 (and .def_105 .def_109)))(let ((.def_346 (and .def_110 .def_345)))(let ((.def_114 (= |sum::m__param__@5| |sum::m@5|)))(let ((.def_112 (= |sum::n__param__@5| |sum::n@5|)))(let ((.def_115 (and .def_112 .def_114)))(let ((.def_347 (and .def_115 .def_346)))(let ((.def_116 (bvslt |sum::n@5| (_ bv1 32))))(let ((.def_118 (not .def_116)))(let ((.def_348 (and .def_118 .def_347)))(let ((.def_126 (bvadd (_ bv1 32) |sum::m@5|)))(let ((.def_128 (= .def_126 |sum::m__param__@6|)))(let ((.def_122 (bvadd (_ bv4294967295 32) |sum::n@5|)))(let ((.def_124 (= .def_122 |sum::n__param__@6|)))(let ((.def_129 (and .def_124 .def_128)))(let ((.def_349 (and .def_129 .def_348)))(let ((.def_133 (= |sum::m__param__@6| |sum::m@6|)))(let ((.def_131 (= |sum::n__param__@6| |sum::n@6|)))(let ((.def_134 (and .def_131 .def_133)))(let ((.def_350 (and .def_134 .def_349)))(let ((.def_135 (bvslt |sum::n@6| (_ bv1 32))))(let ((.def_137 (not .def_135)))(let ((.def_351 (and .def_137 .def_350)))(let ((.def_145 (bvadd (_ bv1 32) |sum::m@6|)))(let ((.def_147 (= .def_145 |sum::m__param__@7|)))(let ((.def_141 (bvadd (_ bv4294967295 32) |sum::n@6|)))(let ((.def_143 (= .def_141 |sum::n__param__@7|)))(let ((.def_148 (and .def_143 .def_147)))(let ((.def_352 (and .def_148 .def_351)))(let ((.def_152 (= |sum::m__param__@7| |sum::m@7|)))(let ((.def_150 (= |sum::n__param__@7| |sum::n@7|)))(let ((.def_153 (and .def_150 .def_152)))(let ((.def_353 (and .def_153 .def_352)))(let ((.def_154 (bvslt |sum::n@7| (_ bv1 32))))(let ((.def_156 (not .def_154)))(let ((.def_354 (and .def_156 .def_353)))(let ((.def_164 (bvadd (_ bv1 32) |sum::m@7|)))(let ((.def_166 (= .def_164 |sum::m__param__@8|)))(let ((.def_160 (bvadd (_ bv4294967295 32) |sum::n@7|)))(let ((.def_162 (= .def_160 |sum::n__param__@8|)))(let ((.def_167 (and .def_162 .def_166)))(let ((.def_355 (and .def_167 .def_354)))(let ((.def_171 (= |sum::m__param__@8| |sum::m@8|)))(let ((.def_169 (= |sum::n__param__@8| |sum::n@8|)))(let ((.def_172 (and .def_169 .def_171)))(let ((.def_356 (and .def_172 .def_355)))(let ((.def_173 (bvslt |sum::n@8| (_ bv1 32))))(let ((.def_175 (not .def_173)))(let ((.def_357 (and .def_175 .def_356)))(let ((.def_183 (bvadd (_ bv1 32) |sum::m@8|)))(let ((.def_185 (= .def_183 |sum::m__param__@9|)))(let ((.def_179 (bvadd (_ bv4294967295 32) |sum::n@8|)))(let ((.def_181 (= .def_179 |sum::n__param__@9|)))(let ((.def_186 (and .def_181 .def_185)))(let ((.def_358 (and .def_186 .def_357)))(let ((.def_190 (= |sum::m__param__@9| |sum::m@9|)))(let ((.def_188 (= |sum::n__param__@9| |sum::n@9|)))(let ((.def_191 (and .def_188 .def_190)))(let ((.def_359 (and .def_191 .def_358)))(let ((.def_192 (bvslt |sum::n@9| (_ bv1 32))))(let ((.def_194 (not .def_192)))(let ((.def_360 (and .def_194 .def_359)))(let ((.def_202 (bvadd (_ bv1 32) |sum::m@9|)))(let ((.def_204 (= .def_202 |sum::m__param__@10|)))(let ((.def_198 (bvadd (_ bv4294967295 32) |sum::n@9|)))(let ((.def_200 (= .def_198 |sum::n__param__@10|)))(let ((.def_205 (and .def_200 .def_204)))(let ((.def_361 (and .def_205 .def_360)))(let ((.def_209 (= |sum::m__param__@10| |sum::m@10|)))(let ((.def_207 (= |sum::n__param__@10| |sum::n@10|)))(let ((.def_210 (and .def_207 .def_209)))(let ((.def_362 (and .def_210 .def_361)))(let ((.def_211 (bvslt |sum::n@10| (_ bv1 32))))(let ((.def_213 (not .def_211)))(let ((.def_363 (and .def_213 .def_362)))(let ((.def_221 (bvadd (_ bv1 32) |sum::m@10|)))(let ((.def_223 (= .def_221 |sum::m__param__@11|)))(let ((.def_217 (bvadd (_ bv4294967295 32) |sum::n@10|)))(let ((.def_219 (= .def_217 |sum::n__param__@11|)))(let ((.def_224 (and .def_219 .def_223)))(let ((.def_364 (and .def_224 .def_363)))(let ((.def_228 (= |sum::m__param__@11| |sum::m@11|)))(let ((.def_226 (= |sum::n__param__@11| |sum::n@11|)))(let ((.def_229 (and .def_226 .def_228)))(let ((.def_365 (and .def_229 .def_364)))(let ((.def_230 (bvslt |sum::n@11| (_ bv1 32))))(let ((.def_232 (not .def_230)))(let ((.def_366 (and .def_232 .def_365)))(let ((.def_240 (bvadd (_ bv1 32) |sum::m@11|)))(let ((.def_242 (= .def_240 |sum::m__param__@12|)))(let ((.def_236 (bvadd (_ bv4294967295 32) |sum::n@11|)))(let ((.def_238 (= .def_236 |sum::n__param__@12|)))(let ((.def_243 (and .def_238 .def_242)))(let ((.def_367 (and .def_243 .def_366)))(let ((.def_247 (= |sum::m__param__@12| |sum::m@12|)))(let ((.def_245 (= |sum::n__param__@12| |sum::n@12|)))(let ((.def_248 (and .def_245 .def_247)))(let ((.def_368 (and .def_248 .def_367)))(let ((.def_249 (bvslt |sum::n@12| (_ bv1 32))))(let ((.def_369 (and .def_249 .def_368)))(let ((.def_252 (bvadd |sum::n@12| |sum::m@12|)))(let ((.def_254 (= .def_252 |sum::iVar1@13|)))(let ((.def_370 (and .def_254 .def_369)))(let ((.def_256 (= |sum::__retval__@2| |sum::iVar1@13|)))(let ((.def_371 (and .def_256 .def_370)))(let ((.def_298 (= |sum::__retval__@2| |sum::iVar1@15|)))(let ((.def_372 (and .def_298 .def_371)))(let ((.def_299 (= |sum::__retval__@3| |sum::iVar1@15|)))(let ((.def_373 (and .def_299 .def_372)))(let ((.def_301 (= |sum::__retval__@3| |sum::iVar1@17|)))(let ((.def_374 (and .def_301 .def_373)))(let ((.def_302 (= |sum::__retval__@4| |sum::iVar1@17|)))(let ((.def_375 (and .def_302 .def_374)))(let ((.def_304 (= |sum::__retval__@4| |sum::iVar1@19|)))(let ((.def_376 (and .def_304 .def_375)))(let ((.def_305 (= |sum::__retval__@5| |sum::iVar1@19|)))(let ((.def_377 (and .def_305 .def_376)))(let ((.def_307 (= |sum::__retval__@5| |sum::iVar1@21|)))(let ((.def_378 (and .def_307 .def_377)))(let ((.def_308 (= |sum::__retval__@6| |sum::iVar1@21|)))(let ((.def_379 (and .def_308 .def_378)))(let ((.def_310 (= |sum::__retval__@6| |sum::iVar1@23|)))(let ((.def_380 (and .def_310 .def_379)))(let ((.def_311 (= |sum::__retval__@7| |sum::iVar1@23|)))(let ((.def_381 (and .def_311 .def_380)))(let ((.def_313 (= |sum::__retval__@7| |sum::iVar1@25|)))(let ((.def_382 (and .def_313 .def_381)))(let ((.def_314 (= |sum::__retval__@8| |sum::iVar1@25|)))(let ((.def_383 (and .def_314 .def_382)))(let ((.def_316 (= |sum::__retval__@8| |sum::iVar1@27|)))(let ((.def_384 (and .def_316 .def_383)))(let ((.def_317 (= |sum::__retval__@9| |sum::iVar1@27|)))(let ((.def_385 (and .def_317 .def_384)))(let ((.def_319 (= |sum::__retval__@9| |sum::iVar1@29|)))(let ((.def_386 (and .def_319 .def_385)))(let ((.def_320 (= |sum::__retval__@10| |sum::iVar1@29|)))(let ((.def_387 (and .def_320 .def_386)))(let ((.def_322 (= |sum::__retval__@10| |sum::iVar1@31|)))(let ((.def_388 (and .def_322 .def_387)))(let ((.def_323 (= |sum::__retval__@11| |sum::iVar1@31|)))(let ((.def_389 (and .def_323 .def_388)))(let ((.def_325 (= |sum::__retval__@11| |sum::iVar1@33|)))(let ((.def_390 (and .def_325 .def_389)))(let ((.def_326 (= |sum::__retval__@12| |sum::iVar1@33|)))(let ((.def_391 (and .def_326 .def_390)))(let ((.def_328 (= |sum::__retval__@12| |main::iVar1@14|)))(let ((.def_392 (and .def_328 .def_391)))(let ((.def_329 (= |main::iVar1@14| (_ bv10 32))))(let ((.def_393 (and .def_329 .def_392))).def_393)))))))))))))))))))))))))))))))))))))))))))))))))))))))))))))))))))))))))))))))))))))))))))))))))))))))))))))))))))))))))))))))))))))))))))))))))))))))))))))))))))))))))))))))))))))))))))))